qbf_easy_train/easy_4607_SAT.qdimacs
p cnf 23 60
a 9 18 6 0
e 1 2 3 4 5 7 8 10 11 12 13 14 15 16 17 19 20 21 22 23 0
4 2 0
4 -3 0
-2 3 -4 0
-5 1 0
-5 4 0
-1 -4 5 0
-6 -7 -8 0
6 7 -8 0
-6 7 8 0
6 -7 8 0
-5 -8 -9 0
5 8 -9 0
-5 8 9 0
5 -8 9 0
11 -3 -12 0
-11 3 -12 0
11 3 12 0
-11 -3 12 0
12 -2 -13 0
-12 2 -13 0
12 2 13 0
-12 -2 13 0
-10 13 -14 0
10 -13 -14 0
-10 -13 14 0
10 13 14 0
15 -14 0
15 -2 0
14 2 -15 0
9 -15 -16 0
-9 15 -16 0
9 15 16 0
-9 -15 16 0
-18 -17 0
-18 2 0
17 -2 18 0
-4 3 -19 0
4 -3 -19 0
-4 -3 19 0
4 3 19 0
-18 -19 -20 0
18 19 -20 0
-18 19 20 0
18 -19 20 0
21 -16 0
21 20 0
16 -20 -21 0
-22 1 0
-22 -17 0
-1 17 22 0
21 -22 -23 0
-21 22 -23 0
21 22 23 0
-21 -22 23 0
7 -17 22 3 -4 23 8 0
1 -2 -21 -12 0
2 -23 -22 -12 -8 0
-16 21 -3 -2 7 0
-5 -12 -3 -23 -1 4 -15 17 0
23 0
