sat_easy_train/easy_4607_SAT.dimacs
p cnf 105 348
1 2 -3 0
-1 -2 -3 0
1 -2 3 0
-1 2 3 0
6 -4 0
6 5 0
4 -5 -6 0
-7 -8 -9 0
7 8 -9 0
-7 8 9 0
7 -8 9 0
-10 6 0
-10 9 0
-6 -9 10 0
3 -10 -11 0
-3 10 -11 0
3 10 11 0
-3 -10 11 0
-11 8 -12 0
11 -8 -12 0
-11 -8 12 0
11 8 12 0
-15 -13 0
-15 -14 0
13 14 15 0
-18 -16 0
-18 17 0
16 -17 18 0
-7 -1 -19 0
7 1 -19 0
-7 1 19 0
7 -1 19 0
-20 18 0
-20 19 0
-18 -19 20 0
21 15 0
21 -20 0
-15 20 -21 0
22 12 0
22 21 0
-12 -21 -22 0
11 -4 -23 0
-11 4 -23 0
11 4 23 0
-11 -4 23 0
24 22 0
24 23 0
-22 -23 -24 0
25 16 -26 0
-25 -16 -26 0
25 -16 26 0
-25 16 26 0
28 17 0
28 27 0
-17 -27 -28 0
29 -26 0
29 28 0
26 -28 -29 0
-30 24 0
-30 -29 0
-24 29 30 0
-1 -10 -31 0
1 10 -31 0
-1 10 31 0
1 -10 31 0
32 27 0
32 -17 0
-27 17 -32 0
-31 -32 -33 0
31 32 -33 0
-31 32 33 0
31 -32 33 0
-33 -11 -34 0
33 11 -34 0
-33 11 34 0
33 -11 34 0
35 16 0
35 -8 0
-16 8 -35 0
36 34 0
36 -35 0
-34 35 -36 0
7 -3 -37 0
-7 3 -37 0
7 3 37 0
-7 -3 37 0
-38 14 0
-38 -31 0
-14 31 38 0
-39 -8 -40 0
39 8 -40 0
-39 8 40 0
39 -8 40 0
41 -40 0
41 -16 0
40 16 -41 0
42 41 0
42 15 0
-41 -15 -42 0
-38 -42 -43 0
38 42 -43 0
-38 42 43 0
38 -42 43 0
44 37 0
44 43 0
-37 -43 -44 0
-45 -44 0
-45 -41 0
44 41 45 0
-45 -46 -47 0
45 46 -47 0
-45 46 47 0
45 -46 47 0
36 -47 -48 0
-36 47 -48 0
36 47 48 0
-36 -47 48 0
8 -4 -49 0
-8 4 -49 0
8 4 49 0
-8 -4 49 0
-49 19 -50 0
49 -19 -50 0
-49 -19 50 0
49 19 50 0
-1 50 -51 0
1 -50 -51 0
-1 -50 51 0
1 50 51 0
-52 51 0
-52 -44 0
-51 44 52 0
-6 -52 -53 0
6 52 -53 0
-6 52 53 0
6 -52 53 0
54 48 0
54 53 0
-48 -53 -54 0
-30 -54 -55 0
30 54 -55 0
-30 54 55 0
30 -54 55 0
-56 -42 -57 0
56 42 -57 0
-56 42 57 0
56 -42 57 0
59 -57 0
59 58 0
57 -58 -59 0
-60 11 0
-60 59 0
-11 -59 60 0
-51 60 -61 0
51 -60 -61 0
-51 -60 61 0
51 60 61 0
62 -15 0
62 2 0
15 -2 -62 0
63 -61 0
63 62 0
61 -62 -63 0
64 7 0
64 -6 0
-7 6 -64 0
-65 -1 0
-65 -58 0
1 58 65 0
-66 -64 0
-66 65 0
64 -65 66 0
63 66 -67 0
-63 -66 -67 0
63 -66 67 0
-63 66 67 0
55 67 -68 0
-55 -67 -68 0
55 -67 68 0
-55 67 68 0
-13 51 -69 0
13 -51 -69 0
-13 -51 69 0
13 51 69 0
2 -26 -70 0
-2 26 -70 0
2 26 70 0
-2 -26 70 0
-69 -70 -71 0
69 70 -71 0
-69 70 71 0
69 -70 71 0
49 -2 -72 0
-49 2 -72 0
49 2 72 0
-49 -2 72 0
73 4 0
73 72 0
-4 -72 -73 0
-74 -56 0
-74 6 0
56 -6 74 0
-75 -17 0
-75 74 0
17 -74 75 0
76 73 0
76 75 0
-73 -75 -76 0
-71 -76 -77 0
71 76 -77 0
-71 76 77 0
71 -76 77 0
-78 16 0
-78 4 0
-16 -4 78 0
-79 77 0
-79 -78 0
-77 78 79 0
-80 13 0
-80 42 0
-13 -42 80 0
17 16 -81 0
-17 -16 -81 0
17 -16 81 0
-17 16 81 0
-6 -26 -82 0
6 26 -82 0
-6 26 82 0
6 -26 82 0
83 82 0
83 13 0
-82 -13 -83 0
-84 14 0
-84 -83 0
-14 83 84 0
85 -81 0
85 84 0
81 -84 -85 0
-86 80 0
-86 85 0
-80 -85 86 0
87 -27 0
87 -41 0
27 41 -87 0
86 87 -88 0
-86 -87 -88 0
86 -87 88 0
-86 87 88 0
89 -15 0
89 26 0
15 -26 -89 0
-90 89 0
-90 11 0
-89 -11 90 0
91 -4 0
91 17 0
4 -17 -91 0
-92 -90 0
-92 91 0
90 -91 92 0
-93 88 0
-93 -92 0
-88 92 93 0
79 -93 -94 0
-79 93 -94 0
79 93 94 0
-79 -93 94 0
-95 -16 0
-95 -43 0
16 43 95 0
-96 73 0
-96 19 0
-73 -19 96 0
97 -15 0
97 -4 0
15 4 -97 0
98 26 0
98 57 0
-26 -57 -98 0
99 -97 0
99 98 0
97 -98 -99 0
100 -96 0
100 99 0
96 -99 -100 0
-95 -100 -101 0
95 100 -101 0
-95 100 101 0
95 -100 101 0
-102 32 0
-102 -40 0
-32 40 102 0
103 -101 0
103 102 0
101 -102 -103 0
104 94 0
104 103 0
-94 -103 -104 0
68 104 -105 0
-68 -104 -105 0
68 -104 105 0
-68 104 105 0
-22 -21 -32 0
100 78 -81 0
-66 78 0
27 -58 49 -38 0
34 66 -4 -78 0
-4 -89 51 -72 0
6 63 -80 42 13 0
-57 16 -3 -72 0
-69 -42 46 10 30 0
-19 -78 95 96 7 0
82 -48 -103 -74 -92 0
-23 92 -38 -105 0
-18 15 91 -72 78 0
-21 99 -36 -33 -14 0
27 -54 -83 90 -62 0
-38 -98 103 61 -70 74 0
102 4 -94 7 49 0
15 9 50 87 0
90 68 -44 0
-4 58 -45 0
93 -102 0
-42 37 -60 -76 0
85 -10 -45 43 26 0
-86 -50 -12 0
94 89 41 23 0
29 -59 -9 -73 105 63 0
82 -54 81 0
-20 -24 96 21 0
-82 -25 0
-66 50 -65 48 0
69 59 0
-70 46 -12 -24 -91 0
90 -30 -62 101 -21 0
-45 -4 -21 0
39 -59 -56 8 -18 63 0
4 -29 66 41 -3 -56 0
56 -51 71 -34 0
-56 -53 -77 -19 -86 0
-75 97 -3 0
62 -50 -83 -15 0
-17 -9 11 -4 0
-102 -32 2 58 78 0
-58 51 -93 30 75 0
70 91 8 -3 22 0
51 100 61 0
105 0
